(set-option :print-success false)
(set-logic QF_UF)
(declare-sort x112 0)
(declare-sort x81 0)
(declare-fun x51 () x81)
(declare-fun x44 (x81 x81) x81)
(declare-fun x83 (x81 x81) x81)
(declare-fun x28 () x81)
(declare-fun x45 () x81)
(declare-fun x72 () x81)
(declare-fun x66 () x81)
(assert (let ((x78 (x44 x72 x72)) (x145 (x44 x28 x28)) (x47 (x44 x66 x66)) (x142 (x44 x51 x51)) (x4 (x44 x45 x45))) (or (and (not (= x45 (x44 x45 x4))) (and (and (not (= x51 (x44 x51 x4))) (and (not (= (x44 x66 x4) x66)) (not (= (x44 x28 x4) x28)))) (not (= (x44 x72 x4) x72)))) (or (or (or (and (and (and (and (not (= (x44 x66 x47) x66)) (not (= (x44 x28 x47) x28))) (not (= (x44 x51 x47) x51))) (not (= x72 (x44 x72 x47)))) (not (= (x44 x45 x47) x45))) (and (and (not (= x72 (x44 x72 x145))) (and (not (= (x44 x51 x145) x51)) (and (not (= x28 (x44 x28 x145))) (not (= x66 (x44 x66 x145)))))) (not (= (x44 x45 x145) x45)))) (and (and (not (= (x44 x72 x142) x72)) (and (and (not (= x28 (x44 x28 x142))) (not (= (x44 x66 x142) x66))) (not (= x51 (x44 x51 x142))))) (not (= x45 (x44 x45 x142))))) (and (not (= x45 (x44 x45 x78))) (and (not (= (x44 x72 x78) x72)) (and (not (= (x44 x51 x78) x51)) (and (not (= x28 (x44 x28 x78))) (not (= x66 (x44 x66 x78)))))))))))
(assert (let ((x94 (x44 x28 x28)) (x156 (x44 x72 x28)) (x55 (x44 x72 x51)) (x133 (x44 x66 x28)) (x152 (x44 x66 x66)) (x139 (x44 x45 x72)) (x77 (x44 x51 x66)) (x43 (x44 x28 x72)) (x95 (x44 x51 x72)) (x13 (x44 x45 x66)) (x92 (x44 x51 x45)) (x130 (x44 x28 x45)) (x97 (x44 x45 x51)) (x58 (x44 x51 x51)) (x131 (x44 x45 x45)) (x126 (x44 x72 x45)) (x153 (x44 x66 x51)) (x138 (x44 x28 x51)) (x3 (x44 x72 x72)) (x143 (x44 x51 x28)) (x141 (x44 x66 x72)) (x87 (x44 x28 x66)) (x102 (x44 x45 x28)) (x59 (x44 x66 x45)) (x36 (x44 x72 x66))) (let ((x4 (not (= x66 x77))) (x99 (not (= x66 x43))) (x5 (not (= x13 x45))) (x114 (not (= x28 x138))) (x159 (not (= x87 x28))) (x85 (not (= x51 x97))) (x145 (not (= x87 x66))) (x32 (not (= x66 x139))) (x149 (not (= x55 x66))) (x64 (not (= x141 x72))) (x134 (not (= x94 x28))) (x18 (not (= x51 x131))) (x120 (not (= x97 x72))) (x113 (not (= x28 x59))) (x53 (not (= x97 x66))) (x157 (not (= x95 x28))) (x8 (not (= x28 x36))) (x11 (not (= x92 x66))) (x121 (not (= x138 x51))) (x46 (not (= x28 x152))) (x35 (not (= x51 x59))) (x27 (not (= x51 x55))) (x24 (not (= x153 x72))) (x76 (not (= x94 x72))) (x91 (not (= x139 x45))) (x37 (not (= x156 x66))) (x38 (not (= x28 x3))) (x67 (not (= x77 x51))) (x74 (not (= x58 x51))) (x15 (not (= x55 x72))) (x123 (not (= x152 x45))) (x54 (not (= x138 x66))) (x47 (not (= x152 x66))) (x124 (not (= x66 x13))) (x88 (not (= x156 x51))) (x109 (not (= x51 x130))) (x103 (not (= x51 x92))) (x30 (not (= x28 x55))) (x119 (not (= x152 x51))) (x118 (not (= x94 x45))) (x69 (not (= x87 x51))) (x29 (not (= x152 x72))) (x61 (not (= x66 x141))) (x60 (not (= x141 x51))) (x106 (not (= x72 x102))) (x107 (not (= x36 x45))) (x21 (not (= x58 x66))) (x39 (not (= x72 x130))) (x122 (not (= x102 x28))) (x98 (not (= x131 x28))) (x68 (not (= x51 x133))) (x65 (not (= x126 x72))) (x12 (not (= x59 x45))) (x26 (not (= x138 x72))) (x135 (not (= x66 x131))) (x17 (not (= x126 x51))) (x9 (not (= x153 x45))) (x20 (not (= x51 x3))) (x40 (not (= x156 x28))) (x150 (not (= x51 x143))) (x1 (not (= x28 x13))) (x75 (not (= x28 x43))) (x115 (not (= x72 x143))) (x80 (not (= x45 x87))) (x111 (not (= x51 x13))) (x101 (not (= x143 x28))) (x146 (not (= x66 x102))) (x19 (not (= x141 x45))) (x151 (not (= x66 x3))) (x84 (not (= x51 x94))) (x100 (not (= x45 x130))) (x93 (not (= x72 x58))) (x158 (not (= x45 x138))) (x129 (not (= x143 x45))) (x73 (not (= x156 x45))) (x34 (not (= x45 x131))) (x6 (not (= x45 x133))) (x33 (not (= x72 x131))) (x110 (not (= x153 x66))) (x82 (not (= x72 x139))) (x62 (not (= x36 x72))) (x116 (not (= x72 x95))) (x89 (not (= x102 x45))) (x16 (not (= x139 x51))) (x52 (not (= x45 x77))) (x25 (not (= x13 x72))) (x128 (not (= x28 x92))) (x148 (not (= x43 x72))) (x127 (not (= x92 x45))) (x57 (not (= x28 x58))) (x90 (not (= x72 x133))) (x136 (not (= x28 x130))) (x108 (not (= x66 x59))) (x154 (not (= x153 x51))) (x140 (not (= x51 x102))) (x70 (not (= x153 x28))) (x105 (not (= x141 x28))) (x56 (not (= x3 x72))) (x14 (not (= x45 x97))) (x63 (not (= x95 x66))) (x42 (not (= x139 x28))) (x7 (not (= x51 x95))) (x22 (not (= x77 x28))) (x117 (not (= x51 x36))) (x41 (not (= x55 x45))) (x132 (not (= x59 x72))) (x155 (not (= x66 x36))) (x10 (not (= x66 x126))) (x49 (not (= x72 x156))) (x23 (not (= x45 x58))) (x125 (not (= x28 x97))) (x79 (not (= x43 x45))) (x137 (not (= x66 x130))) (x31 (not (= x28 x133))) (x104 (not (= x43 x51))) (x142 (not (= x66 x133))) (x96 (not (= x92 x72))) (x86 (not (= x28 x126))) (x147 (not (= x66 x143))) (x78 (not (= x66 x94))) (x50 (not (= x45 x3))) (x71 (not (= x126 x45))) (x144 (not (= x72 x77))) (x2 (not (= x95 x45))) (x48 (not (= x72 x87)))) (or (and (and (and (or x91 x71) (and (or x14 x127) (and (or x5 x12) (or x100 x89)))) (or x34 x34)) (and (and (and (and (or x2 x41) (and (and (or x52 x9) (or x129 x158)) (or x23 x23))) (or x14 x127)) (and (and (or x5 x12) (and (and (and (or x123 x123) (or x6 x80)) (or x52 x9)) (or x107 x19))) (and (or x100 x89) (and (or x79 x73) (and (and (or x80 x6) (or x118 x118)) (or x158 x129)))))) (and (or x91 x71) (and (or x50 x50) (and (and (or x79 x73) (or x19 x107)) (or x41 x2)))))) (or (or (or (and (and (and (or x10 x32) (and (and (or x149 x63) (and (or x37 x99) (or x61 x155))) (or x151 x151))) (and (and (and (or x108 x124) (and (and (and (or x47 x47) (or x145 x142)) (or x4 x110)) (or x155 x61))) (and (and (and (or x147 x54) (and (or x78 x78) (or x142 x145))) (or x99 x37)) (or x146 x137))) (and (and (or x149 x63) (and (and (or x147 x54) (or x4 x110)) (or x21 x21))) (or x11 x53)))) (and (or x135 x135) (and (and (or x11 x53) (and (or x124 x108) (or x146 x137))) (or x10 x32)))) (and (and (and (and (and (and (or x8 x105) (and (and (or x46 x46) (or x159 x31)) (or x70 x22))) (or x113 x1)) (and (and (and (and (or x134 x134) (or x31 x159)) (or x101 x114)) (or x75 x40)) (or x122 x136))) (and (or x125 x128) (and (and (or x57 x57) (and (or x22 x70) (or x101 x114))) (or x30 x157)))) (and (or x86 x42) (and (and (or x30 x157) (and (or x75 x40) (or x8 x105))) (or x38 x38)))) (and (or x98 x98) (and (and (or x125 x128) (and (or x122 x136) (or x1 x113))) (or x86 x42))))) (and (and (and (or x16 x17) (and (or x103 x85) (and (or x35 x111) (or x140 x109)))) (or x18 x18)) (and (and (and (or x103 x85) (and (and (and (or x121 x150) (or x67 x154)) (or x74 x74)) (or x7 x27))) (and (and (or x111 x35) (and (and (or x154 x67) (and (or x69 x68) (or x119 x119))) (or x60 x117))) (and (or x109 x140) (and (or x104 x88) (and (and (or x84 x84) (or x69 x68)) (or x121 x150)))))) (and (or x16 x17) (and (and (and (or x60 x117) (or x104 x88)) (or x27 x7)) (or x20 x20)))))) (and (and (and (or x82 x65) (and (or x56 x56) (and (or x116 x15) (and (or x148 x49) (or x64 x62))))) (and (and (and (and (or x49 x148) (and (and (or x48 x90) (or x76 x76)) (or x26 x115))) (or x39 x106)) (and (and (or x62 x64) (and (and (or x90 x48) (or x29 x29)) (or x144 x24))) (or x25 x132))) (and (or x120 x96) (and (or x15 x116) (and (or x93 x93) (and (or x24 x144) (or x115 x26))))))) (and (and (and (or x96 x120) (and (or x39 x106) (or x132 x25))) (or x65 x82)) (or x33 x33))))))))
(assert (or (and (and (not (= (x44 (x44 x72 x45) x72) x45)) (and (and (not (= (x44 (x44 x66 x45) x66) x45)) (not (= x45 (x44 (x44 x28 x45) x28)))) (not (= x45 (x44 (x44 x51 x45) x51))))) (not (= (x44 (x44 x45 x45) x45) x45))) (or (or (and (and (not (= x51 (x44 (x44 x72 x51) x72))) (and (not (= (x44 (x44 x51 x51) x51) x51)) (and (not (= x51 (x44 (x44 x28 x51) x28))) (not (= (x44 (x44 x66 x51) x66) x51))))) (not (= x51 (x44 (x44 x45 x51) x45)))) (or (and (and (and (and (not (= x28 (x44 (x44 x66 x28) x66))) (not (= x28 (x44 (x44 x28 x28) x28)))) (not (= x28 (x44 (x44 x51 x28) x51)))) (not (= (x44 (x44 x72 x28) x72) x28))) (not (= (x44 (x44 x45 x28) x45) x28))) (and (and (and (not (= (x44 (x44 x51 x66) x51) x66)) (and (not (= x66 (x44 (x44 x66 x66) x66))) (not (= x66 (x44 (x44 x28 x66) x28))))) (not (= (x44 (x44 x72 x66) x72) x66))) (not (= (x44 (x44 x45 x66) x45) x66))))) (and (not (= x72 (x44 (x44 x45 x72) x45))) (and (not (= x72 (x44 (x44 x72 x72) x72))) (and (not (= (x44 (x44 x51 x72) x51) x72)) (and (not (= (x44 (x44 x66 x72) x66) x72)) (not (= x72 (x44 (x44 x28 x72) x28))))))))))
(assert (let ((x137 (x44 x45 x72)) (x37 (x44 x28 x51)) (x32 (x44 x51 x45)) (x151 (x44 x66 x72)) (x99 (x44 x51 x51)) (x135 (x44 x45 x45)) (x47 (x44 x66 x66)) (x4 (x44 x45 x66)) (x142 (x44 x51 x66)) (x61 (x44 x66 x51)) (x145 (x44 x28 x66)) (x10 (x44 x72 x45)) (x149 (x44 x72 x51)) (x53 (x44 x66 x45)) (x147 (x44 x28 x28)) (x155 (x44 x45 x28)) (x78 (x44 x72 x66)) (x54 (x44 x51 x28)) (x63 (x44 x45 x51)) (x124 (x44 x28 x72)) (x21 (x44 x72 x28)) (x110 (x44 x66 x28)) (x108 (x44 x51 x72)) (x11 (x44 x28 x45)) (x146 (x44 x72 x72))) (and (and (and (and (not (= x146 x10)) (and (and (and (and (and (and (and (and (not (= x21 x78)) (not (= x149 x78))) (not (= x146 x78))) (not (= x10 x78))) (not (= x21 x149))) (not (= x21 x146))) (not (= x21 x10))) (not (= x146 x149))) (not (= x149 x10)))) (and (and (and (and (not (= x37 x11)) (and (not (= x124 x37)) (and (and (and (not (= x37 x147)) (and (and (and (not (= x37 x145)) (not (= x145 x147))) (not (= x124 x145))) (not (= x11 x145)))) (not (= x124 x147))) (not (= x147 x11))))) (not (= x124 x11))) (and (not (= x151 x53)) (and (not (= x61 x53)) (and (and (and (and (not (= x61 x110)) (and (not (= x53 x47)) (and (not (= x151 x47)) (and (not (= x47 x110)) (not (= x47 x61)))))) (not (= x151 x110))) (not (= x110 x53))) (not (= x61 x151)))))) (and (and (and (not (= x99 x108)) (and (and (and (and (and (not (= x142 x108)) (and (not (= x142 x99)) (not (= x142 x54)))) (not (= x142 x32))) (not (= x54 x99))) (not (= x108 x54))) (not (= x32 x54)))) (not (= x32 x99))) (not (= x32 x108))))) (and (not (= x135 x137)) (and (not (= x135 x63)) (and (not (= x63 x137)) (and (and (and (and (and (not (= x137 x4)) (and (not (= x155 x4)) (not (= x63 x4)))) (not (= x4 x135))) (not (= x155 x63))) (not (= x155 x137))) (not (= x155 x135))))))) (and (and (and (not (= x146 x137)) (and (not (= x137 x108)) (and (not (= x108 x146)) (and (and (and (and (and (not (= x146 x151)) (and (not (= x151 x108)) (not (= x151 x124)))) (not (= x137 x151))) (not (= x124 x108))) (not (= x124 x146))) (not (= x124 x137)))))) (and (and (and (not (= x99 x63)) (and (not (= x99 x149)) (and (and (not (= x149 x37)) (and (not (= x37 x99)) (and (not (= x61 x63)) (and (not (= x149 x61)) (and (not (= x61 x99)) (not (= x37 x61))))))) (not (= x37 x63))))) (not (= x149 x63))) (and (and (not (= x78 x4)) (and (not (= x4 x142)) (and (and (not (= x145 x4)) (and (and (not (= x142 x145)) (and (not (= x47 x4)) (and (and (not (= x145 x47)) (not (= x142 x47))) (not (= x78 x47))))) (not (= x78 x145)))) (not (= x142 x78))))) (and (not (= x155 x21)) (and (and (and (not (= x155 x147)) (and (not (= x21 x147)) (and (and (and (and (not (= x147 x110)) (not (= x110 x54))) (not (= x110 x21))) (not (= x155 x110))) (not (= x147 x54))))) (not (= x21 x54))) (not (= x54 x155))))))) (and (not (= x135 x10)) (and (and (not (= x10 x32)) (and (and (and (not (= x32 x11)) (and (not (= x135 x53)) (and (and (not (= x32 x53)) (not (= x11 x53))) (not (= x10 x53))))) (not (= x10 x11))) (not (= x11 x135)))) (not (= x32 x135))))))))
(assert (and (or (or (= (x44 x45 (x44 x45 x72)) x72) (or (or (= (x44 x45 (x44 x45 x66)) x66) (= x28 (x44 x45 (x44 x45 x28)))) (= x51 (x44 x45 (x44 x45 x51))))) (= (x44 x45 (x44 x45 x45)) x45)) (and (and (and (or (or (= x72 (x44 x28 (x44 x28 x72))) (or (or (= x28 (x44 x28 (x44 x28 x28))) (= x66 (x44 x28 (x44 x28 x66)))) (= x51 (x44 x28 (x44 x28 x51))))) (= x45 (x44 x28 (x44 x28 x45)))) (or (or (= (x44 x66 (x44 x66 x72)) x72) (or (or (= (x44 x66 (x44 x66 x28)) x28) (= (x44 x66 (x44 x66 x66)) x66)) (= x51 (x44 x66 (x44 x66 x51))))) (= (x44 x66 (x44 x66 x45)) x45))) (or (or (= (x44 x51 (x44 x51 x72)) x72) (or (= x51 (x44 x51 (x44 x51 x51))) (or (= x28 (x44 x51 (x44 x51 x28))) (= (x44 x51 (x44 x51 x66)) x66)))) (= x45 (x44 x51 (x44 x51 x45))))) (or (= x45 (x44 x72 (x44 x72 x45))) (or (= x72 (x44 x72 (x44 x72 x72))) (or (= (x44 x72 (x44 x72 x51)) x51) (or (= (x44 x72 (x44 x72 x66)) x66) (= (x44 x72 (x44 x72 x28)) x28))))))))
(assert (or (or (and (not (= x45 (x44 (x44 x72 x45) x72))) (and (and (not (= x51 (x44 (x44 x72 x51) x72))) (and (not (= (x44 (x44 x72 x28) x72) x28)) (not (= x66 (x44 (x44 x72 x66) x72))))) (not (= x72 (x44 (x44 x72 x72) x72))))) (or (or (and (and (and (not (= (x44 (x44 x28 x51) x28) x51)) (and (not (= (x44 (x44 x28 x66) x28) x66)) (not (= x28 (x44 (x44 x28 x28) x28))))) (not (= (x44 (x44 x28 x72) x28) x72))) (not (= x45 (x44 (x44 x28 x45) x28)))) (and (not (= x45 (x44 (x44 x66 x45) x66))) (and (not (= x72 (x44 (x44 x66 x72) x66))) (and (and (not (= (x44 (x44 x66 x66) x66) x66)) (not (= (x44 (x44 x66 x28) x66) x28))) (not (= (x44 (x44 x66 x51) x66) x51)))))) (and (not (= (x44 (x44 x51 x45) x51) x45)) (and (and (not (= (x44 (x44 x51 x51) x51) x51)) (and (not (= (x44 (x44 x51 x28) x51) x28)) (not (= (x44 (x44 x51 x66) x51) x66)))) (not (= x72 (x44 (x44 x51 x72) x51))))))) (and (not (= (x44 (x44 x45 x45) x45) x45)) (and (and (not (= x51 (x44 (x44 x45 x51) x45))) (and (not (= x28 (x44 (x44 x45 x28) x45))) (not (= x66 (x44 (x44 x45 x66) x45))))) (not (= x72 (x44 (x44 x45 x72) x45)))))))
(assert (and (and (not (= x45 x51)) (and (and (and (not (= x72 x28)) (and (not (= x51 x28)) (and (not (= x45 x66)) (and (not (= x66 x72)) (and (not (= x66 x51)) (not (= x28 x66))))))) (not (= x28 x45))) (not (= x72 x51)))) (not (= x72 x45))))
(assert (not (and (and (= (x44 x45 x72) x28) (and (and (= (x44 x45 x28) x72) (and (and (= x28 (x44 x72 x45)) (and (and (= x45 (x44 x72 x51)) (and (and (and (and (and (= (x44 x51 x51) x66) (and (= (x44 x51 x28) x28) (and (and (= (x44 x28 x45) x51) (and (= (x44 x28 x72) x66) (and (= (x44 x28 x51) x28) (and (and (and (and (and (= (x44 x66 x51) x72) (and (= x66 (x44 x66 x28)) (= x28 (x44 x66 x66)))) (= x51 (x44 x66 x72))) (= x45 (x44 x66 x45))) (= x72 (x44 x28 x66))) (= (x44 x28 x28) x45))))) (= (x44 x51 x66) x51)))) (= (x44 x51 x72) x45)) (= x72 (x44 x51 x45))) (= x66 (x44 x72 x66))) (= x51 (x44 x72 x28)))) (= (x44 x72 x72) x72))) (= (x44 x45 x66) x45))) (= x51 (x44 x45 x51)))) (= x66 (x44 x45 x45)))))
(assert (let ((x11 (x44 x28 x45)) (x46 (x44 x45 x28)) (x121 (x44 x45 x72)) (x132 (x44 x45 x45)) (x4 (x44 x66 x72)) (x110 (x44 x66 x45)) (x130 (x44 x51 x51)) (x21 (x44 x51 x66)) (x142 (x44 x66 x28)) (x137 (x44 x28 x51)) (x145 (x44 x66 x66)) (x53 (x44 x28 x72)) (x78 (x44 x66 x51)) (x155 (x44 x72 x66)) (x69 (x44 x72 x72)) (x68 (x44 x72 x45)) (x58 (x44 x72 x51)) (x57 (x44 x45 x51)) (x22 (x44 x51 x45)) (x54 (x44 x28 x66)) (x61 (x44 x45 x66)) (x152 (x44 x72 x28)) (x146 (x44 x28 x28)) (x102 (x44 x51 x72)) (x135 (x44 x51 x28))) (let ((x36 (= x72 x146)) (x90 (= x45 x102)) (x157 (= x72 x130)) (x13 (= x45 x142)) (x151 (= x142 x66)) (x5 (= x61 x45)) (x118 (= x11 x51)) (x138 (= x66 x137)) (x95 (= x21 x51)) (x122 (= x152 x66)) (x79 (= x11 x72)) (x82 (= x28 x132)) (x49 (= x66 x68)) (x52 (= x22 x51)) (x131 (= x155 x28)) (x30 (= x72 x137)) (x85 (= x72 x102)) (x107 (= x72 x57)) (x76 (= x45 x69)) (x9 (= x51 x68)) (x150 (= x28 x69)) (x114 (= x28 x130)) (x48 (= x45 x53)) (x41 (= x72 x22)) (x101 (= x137 x28)) (x154 (= x102 x28)) (x25 (= x28 x121)) (x39 (= x28 x11)) (x104 (= x53 x51)) (x10 (= x146 x28)) (x125 (= x4 x66)) (x64 (= x22 x66)) (x153 (= x51 x146)) (x109 (= x53 x72)) (x111 (= x152 x72)) (x73 (= x110 x72)) (x38 (= x135 x45)) (x136 (= x66 x58)) (x134 (= x78 x66)) (x56 (= x28 x57)) (x42 (= x102 x66)) (x96 (= x68 x28)) (x47 (= x66 x145)) (x116 (= x46 x28)) (x71 (= x68 x45)) (x106 (= x110 x28)) (x148 (= x66 x132)) (x31 (= x66 x21)) (x40 (= x72 x135)) (x12 (= x46 x45)) (x139 (= x137 x45)) (x120 (= x28 x22)) (x92 (= x51 x78)) (x1 (= x130 x45)) (x60 (= x51 x58)) (x7 (= x69 x51)) (x103 (= x72 x69)) (x63 (= x54 x66)) (x140 (= x72 x4)) (x27 (= x102 x51)) (x124 (= x146 x66)) (x115 (= x57 x66)) (x97 (= x137 x51)) (x15 (= x61 x28)) (x94 (= x135 x66)) (x87 (= x142 x51)) (x86 (= x66 x69)) (x117 (= x152 x51)) (x37 (= x145 x51)) (x127 (= x11 x45)) (x126 (= x78 x45)) (x50 (= x72 x132)) (x99 (= x72 x145)) (x88 (= x4 x51)) (x144 (= x66 x61)) (x20 (= x155 x72)) (x33 (= x51 x46)) (x26 (= x121 x66)) (x32 (= x28 x142)) (x128 (= x66 x53)) (x98 (= x152 x28)) (x35 (= x72 x58)) (x133 (= x51 x54)) (x74 (= x51 x155)) (x23 (= x46 x72)) (x18 (= x58 x45)) (x149 (= x45 x145)) (x24 (= x66 x46)) (x16 (= x45 x155)) (x80 (= x121 x51)) (x91 (= x45 x22)) (x158 (= x72 x61)) (x156 (= x28 x135)) (x6 (= x51 x110)) (x43 (= x21 x28)) (x143 (= x130 x66)) (x14 (= x110 x45)) (x70 (= x78 x28)) (x105 (= x21 x72)) (x147 (= x28 x145)) (x62 (= x11 x66)) (x75 (= x78 x72)) (x59 (= x45 x54)) (x93 (= x66 x110)) (x8 (= x130 x51)) (x17 (= x45 x152)) (x119 (= x28 x58)) (x84 (= x4 x28)) (x19 (= x121 x72)) (x34 (= x45 x132)) (x100 (= x45 x121)) (x129 (= x132 x51)) (x77 (= x72 x54)) (x65 (= x51 x61)) (x123 (= x51 x57)) (x2 (= x72 x68)) (x108 (= x28 x54)) (x55 (= x135 x51)) (x159 (= x146 x45)) (x89 (= x45 x57)) (x3 (= x21 x45)) (x113 (= x66 x155)) (x29 (= x4 x45)) (x67 (= x53 x28)) (x141 (= x142 x72))) (and (and (and (and (and (and (and (or (or (or x105 (or x77 x99)) x20) x158) (or (or (or x75 (or x141 x99)) x140) x73)) (and (and (or (or x88 (or (or x87 x37) x92)) x6) (or (or x74 (or (or x37 x133) x95)) x65)) (and (and (or x106 (or x84 (or (or x147 x32) x70))) (or (or (or (or x147 x108) x43) x131) x15)) (and (or (or x113 (or x31 (or x63 x47))) x144) (or (or x125 (or (or x151 x47) x134)) x93))))) (and (or (or (or x126 (or x149 x13)) x29) x14) (or (or x16 (or (or x59 x149) x3)) x5))) (and (and (or (or x48 (or x139 (or x159 x59))) x127) (or (or (or (or x13 x159) x38) x17) x12)) (and (and (and (or (or x117 (or (or x153 x87) x55)) x33) (or (or (or (or x153 x133) x97) x104) x118)) (and (and (or (or (or x94 (or x151 x124)) x122) x24) (or (or (or x138 (or x63 x124)) x128) x62)) (and (or x39 (or x67 (or x101 (or x10 x108)))) (or x116 (or (or x156 (or x10 x32)) x98))))) (and (or x79 (or x109 (or (or x77 x36) x30))) (or x23 (or (or (or x36 x141) x40) x111)))))) (and (and (or (or (or x1 (or x139 x126)) x18) x89) (or (or x90 (or (or x38 x3) x1)) x91)) (and (and (and (and (or (or x119 (or (or x70 x101) x114)) x56) (or (or (or x114 (or x43 x156)) x154) x120)) (and (or x115 (or (or (or x134 x138) x143) x136)) (or (or (or (or x94 x31) x143) x42) x64))) (and (or x52 (or (or (or x55 x95) x8) x27)) (or (or x60 (or (or x92 x97) x8)) x123))) (and (or (or (or (or x75 x30) x157) x35) x107) (or (or (or x157 (or x105 x40)) x85) x41))))) (and (and (or (or (or x18 (or x17 x16)) x76) x71) (or x100 (or x76 (or (or x29 x48) x90)))) (and (and (and (or x9 (or x7 (or x60 (or x117 x74)))) (or (or (or x27 (or x88 x104)) x7) x80)) (and (and (or x96 (or x150 (or (or x131 x98) x119))) (or (or x150 (or x154 (or x67 x84))) x25)) (and (or x49 (or x86 (or x136 (or x113 x122)))) (or x26 (or (or x42 (or x125 x128)) x86))))) (and (or (or (or x35 (or x111 x20)) x103) x2) (or x19 (or x103 (or x85 (or x140 x109)))))))) (and (and (or x34 (or (or (or x127 x14) x91) x71)) (or x34 (or x100 (or (or x5 x12) x89)))) (and (and (or (or (or (or x158 x23) x107) x19) x50) (or x50 (or x2 (or (or x73 x79) x41)))) (and (and (or x129 (or (or (or x118 x6) x52) x9)) (or (or (or (or x33 x65) x123) x80) x129)) (and (and (or x148 (or (or (or x93 x62) x64) x49)) (or x148 (or (or x115 (or x24 x144)) x26))) (and (or (or (or (or x39 x106) x120) x96) x82) (or (or x25 (or x56 (or x15 x116))) x82))))))))))
(assert (and (and (and (and (or (= x28 (x44 x45 (x44 x28 x45))) (or (= x28 (x44 x72 (x44 x28 x72))) (or (or (= x28 (x44 x66 (x44 x28 x66))) (= x28 (x44 x28 (x44 x28 x28)))) (= x28 (x44 x51 (x44 x28 x51)))))) (or (= (x44 x45 (x44 x66 x45)) x66) (or (= (x44 x72 (x44 x66 x72)) x66) (or (or (= (x44 x66 (x44 x66 x66)) x66) (= x66 (x44 x28 (x44 x66 x28)))) (= (x44 x51 (x44 x66 x51)) x66))))) (or (or (= x51 (x44 x72 (x44 x51 x72))) (or (or (= (x44 x66 (x44 x51 x66)) x51) (= (x44 x28 (x44 x51 x28)) x51)) (= (x44 x51 (x44 x51 x51)) x51))) (= x51 (x44 x45 (x44 x51 x45))))) (or (= x72 (x44 x45 (x44 x72 x45))) (or (= (x44 x72 (x44 x72 x72)) x72) (or (or (= x72 (x44 x66 (x44 x72 x66))) (= x72 (x44 x28 (x44 x72 x28)))) (= x72 (x44 x51 (x44 x72 x51))))))) (or (= x45 (x44 x45 (x44 x45 x45))) (or (= (x44 x72 (x44 x45 x72)) x45) (or (= (x44 x51 (x44 x45 x51)) x45) (or (= (x44 x28 (x44 x45 x28)) x45) (= x45 (x44 x66 (x44 x45 x66)))))))))
(assert (and (and (= (x44 x45 x28) x72) (and (= (x44 x66 x66) x28) (= x51 (x44 x72 x28)))) (= x45 (x44 x28 x28))))
(assert (let ((x37 (x44 x51 x28)) (x108 (x44 x72 x51)) (x54 (x44 x28 x51)) (x124 (x44 x72 x28)) (x137 (x44 x72 x45)) (x4 (x44 x66 x45)) (x155 (x44 x28 x45)) (x99 (x44 x51 x51)) (x53 (x44 x45 x66)) (x61 (x44 x51 x66)) (x78 (x44 x66 x72)) (x149 (x44 x51 x72)) (x146 (x44 x72 x72)) (x11 (x44 x45 x28)) (x151 (x44 x72 x66)) (x10 (x44 x45 x72)) (x63 (x44 x51 x45)) (x47 (x44 x66 x66)) (x110 (x44 x28 x66)) (x21 (x44 x28 x72)) (x32 (x44 x45 x51)) (x142 (x44 x66 x51)) (x147 (x44 x28 x28)) (x145 (x44 x66 x28)) (x135 (x44 x45 x45))) (and (and (and (and (and (and (and (and (or (or (or (= x47 x51) (or (= x47 x28) (= x47 x66))) (= x72 x47)) (= x47 x45)) (or (= x145 x45) (or (= x72 x145) (or (= x145 x51) (or (= x145 x66) (= x28 x145)))))) (or (or (or (= x142 x51) (or (= x142 x28) (= x66 x142))) (= x72 x142)) (= x45 x142))) (or (or (or (= x51 x78) (or (= x78 x66) (= x78 x28))) (= x78 x72)) (= x78 x45))) (or (= x4 x45) (or (or (= x51 x4) (or (= x28 x4) (= x66 x4))) (= x4 x72)))) (and (or (= x155 x45) (or (= x72 x155) (or (or (= x155 x28) (= x155 x66)) (= x51 x155)))) (and (and (or (or (= x72 x54) (or (= x51 x54) (or (= x54 x28) (= x66 x54)))) (= x45 x54)) (and (or (= x45 x147) (or (= x72 x147) (or (= x51 x147) (or (= x147 x66) (= x147 x28))))) (or (= x110 x45) (or (= x110 x72) (or (= x110 x51) (or (= x110 x66) (= x28 x110))))))) (or (or (= x72 x21) (or (= x51 x21) (or (= x28 x21) (= x66 x21)))) (= x21 x45))))) (and (or (or (or (= x51 x63) (or (= x66 x63) (= x63 x28))) (= x63 x72)) (= x45 x63)) (and (or (= x149 x45) (or (= x72 x149) (or (= x149 x51) (or (= x28 x149) (= x66 x149))))) (and (or (or (= x72 x99) (or (or (= x99 x28) (= x66 x99)) (= x99 x51))) (= x99 x45)) (and (or (or (or (or (= x37 x28) (= x37 x66)) (= x51 x37)) (= x37 x72)) (= x45 x37)) (or (= x45 x61) (or (or (= x61 x51) (or (= x28 x61) (= x61 x66))) (= x72 x61)))))))) (and (and (and (and (or (or (= x72 x124) (or (= x51 x124) (or (= x124 x66) (= x28 x124)))) (= x124 x45)) (or (or (= x72 x151) (or (= x151 x51) (or (= x151 x66) (= x151 x28)))) (= x45 x151))) (or (= x108 x45) (or (= x108 x72) (or (or (= x108 x28) (= x66 x108)) (= x51 x108))))) (or (= x146 x45) (or (or (or (= x146 x28) (= x146 x66)) (= x51 x146)) (= x146 x72)))) (or (= x137 x45) (or (or (= x51 x137) (or (= x137 x66) (= x28 x137))) (= x72 x137))))) (and (and (and (or (or (or (= x51 x32) (or (= x28 x32) (= x66 x32))) (= x72 x32)) (= x45 x32)) (and (or (or (= x72 x53) (or (= x53 x51) (or (= x53 x66) (= x53 x28)))) (= x45 x53)) (or (or (= x72 x11) (or (or (= x11 x66) (= x28 x11)) (= x51 x11))) (= x45 x11)))) (or (= x10 x45) (or (= x72 x10) (or (= x10 x51) (or (= x28 x10) (= x66 x10)))))) (or (= x135 x45) (or (or (or (= x28 x135) (= x135 x66)) (= x135 x51)) (= x72 x135)))))))
(assert (and (and (and (and (or (or (= (x44 (x44 x72 x66) x66) x72) (or (= (x44 (x44 x51 x66) x66) x51) (or (= x66 (x44 (x44 x66 x66) x66)) (= (x44 (x44 x28 x66) x66) x28)))) (= x45 (x44 (x44 x45 x66) x66))) (or (or (or (= x51 (x44 (x44 x51 x28) x28)) (or (= (x44 (x44 x28 x28) x28) x28) (= x66 (x44 (x44 x66 x28) x28)))) (= (x44 (x44 x72 x28) x28) x72)) (= (x44 (x44 x45 x28) x28) x45))) (or (or (= x72 (x44 (x44 x72 x51) x51)) (or (= (x44 (x44 x51 x51) x51) x51) (or (= x28 (x44 (x44 x28 x51) x51)) (= x66 (x44 (x44 x66 x51) x51))))) (= (x44 (x44 x45 x51) x51) x45))) (or (= (x44 (x44 x45 x72) x72) x45) (or (or (= (x44 (x44 x51 x72) x72) x51) (or (= (x44 (x44 x28 x72) x72) x28) (= x66 (x44 (x44 x66 x72) x72)))) (= x72 (x44 (x44 x72 x72) x72))))) (or (or (or (= (x44 (x44 x51 x45) x45) x51) (or (= x28 (x44 (x44 x28 x45) x45)) (= x66 (x44 (x44 x66 x45) x45)))) (= x72 (x44 (x44 x72 x45) x45))) (= (x44 (x44 x45 x45) x45) x45))))
(assert (or (= (x44 x45 x45) x45) (or (= (x44 x72 x72) x72) (or (= (x44 x51 x51) x51) (or (= x28 (x44 x28 x28)) (= (x44 x66 x66) x66))))))
(assert (let ((x78 (x44 x72 x72)) (x4 (x44 x45 x45)) (x142 (x44 x51 x51)) (x145 (x44 x28 x28)) (x47 (x44 x66 x66))) (or (and (not (= x45 x4)) (and (not (= x78 x45)) (and (and (not (= x47 x45)) (not (= x45 x145))) (not (= x45 x142))))) (or (or (and (not (= x51 x4)) (and (and (and (not (= x51 x47)) (not (= x145 x51))) (not (= x51 x142))) (not (= x51 x78)))) (or (and (not (= x4 x28)) (and (and (not (= x142 x28)) (and (not (= x145 x28)) (not (= x28 x47)))) (not (= x78 x28)))) (and (and (and (not (= x66 x142)) (and (not (= x66 x47)) (not (= x145 x66)))) (not (= x78 x66))) (not (= x66 x4))))) (and (not (= x72 x4)) (and (not (= x78 x72)) (and (not (= x72 x142)) (and (not (= x47 x72)) (not (= x72 x145))))))))))
(assert (let ((x46 (x44 x51 x28)) (x153 (x44 x51 x72)) (x155 (x44 x45 x66)) (x54 (x44 x72 x66)) (x11 (x44 x28 x51)) (x143 (x44 x45 x28)) (x78 (x44 x28 x66)) (x31 (x44 x72 x72)) (x87 (x44 x51 x51)) (x102 (x44 x45 x45)) (x63 (x44 x66 x51)) (x59 (x44 x72 x28)) (x77 (x44 x51 x45)) (x110 (x44 x51 x66)) (x32 (x44 x28 x72)) (x137 (x44 x28 x28)) (x145 (x44 x66 x66)) (x124 (x44 x66 x45)) (x151 (x44 x66 x72)) (x130 (x44 x45 x72)) (x159 (x44 x72 x51)) (x99 (x44 x66 x28)) (x156 (x44 x45 x51)) (x94 (x44 x72 x45)) (x10 (x44 x28 x45))) (let ((x61 (= x28 x145)) (x150 (= x11 x72)) (x88 (= x72 x46)) (x149 (= x99 x28)) (x120 (= x32 x45)) (x133 (= x46 x28)) (x12 (= x102 x66)) (x106 (= x45 x11)) (x117 (= x110 x72)) (x132 (= x10 x28)) (x76 (= x130 x51)) (x92 (= x28 x11)) (x2 (= x94 x72)) (x136 (= x28 x156)) (x152 (= x46 x66)) (x86 (= x72 x99)) (x16 (= x72 x31)) (x85 (= x72 x159)) (x30 (= x87 x51)) (x126 (= x28 x159)) (x146 (= x66 x137)) (x101 (= x51 x99)) (x115 (= x124 x66)) (x114 (= x63 x28)) (x158 (= x45 x54)) (x9 (= x72 x77)) (x157 (= x54 x51)) (x41 (= x31 x45)) (x52 (= x153 x45)) (x53 (= x137 x28)) (x13 (= x59 x28)) (x96 (= x10 x72)) (x14 (= x45 x156)) (x125 (= x156 x51)) (x75 (= x28 x87)) (x48 (= x28 x130)) (x79 (= x51 x94)) (x84 (= x32 x66)) (x55 (= x137 x51)) (x18 (= x66 x130)) (x97 (= x11 x51)) (x29 (= x143 x72)) (x127 (= x51 x102)) (x104 (= x28 x153)) (x37 (= x66 x99)) (x34 (= x102 x45)) (x42 (= x66 x151)) (x69 (= x151 x72)) (x90 (= x72 x156)) (x108 (= x28 x78)) (x49 (= x45 x151)) (x147 (= x54 x66)) (x60 (= x66 x153)) (x26 (= x99 x45)) (x93 (= x124 x28)) (x100 (= x28 x102)) (x6 (= x87 x45)) (x128 (= x145 x72)) (x33 (= x77 x66)) (x105 (= x66 x87)) (x38 (= x51 x59)) (x144 (= x130 x72)) (x134 (= x155 x28)) (x116 (= x78 x45)) (x3 (= x159 x66)) (x23 (= x66 x94)) (x80 (= x28 x77)) (x148 (= x72 x124)) (x131 (= x28 x151)) (x70 (= x63 x66)) (x98 (= x72 x63)) (x140 (= x59 x72)) (x111 (= x54 x72)) (x95 (= x66 x11)) (x39 (= x10 x51)) (x129 (= x77 x45)) (x56 (= x10 x66)) (x36 (= x59 x66)) (x27 (= x87 x72)) (x71 (= x72 x102)) (x122 (= x143 x51)) (x57 (= x78 x51)) (x64 (= x51 x124)) (x119 (= x151 x51)) (x109 (= x31 x28)) (x103 (= x51 x31)) (x8 (= x51 x110)) (x62 (= x45 x63)) (x19 (= x28 x94)) (x135 (= x110 x28)) (x22 (= x51 x145)) (x91 (= x130 x45)) (x138 (= x143 x66)) (x35 (= x66 x31)) (x43 (= x143 x28)) (x123 (= x45 x46)) (x89 (= x143 x45)) (x142 (= x78 x66)) (x1 (= x51 x155)) (x47 (= x145 x66)) (x5 (= x155 x45)) (x73 (= x45 x159)) (x58 (= x63 x51)) (x154 (= x28 x32)) (x25 (= x137 x45)) (x121 (= x51 x32)) (x21 (= x155 x66)) (x118 (= x77 x51)) (x20 (= x153 x72)) (x15 (= x45 x124)) (x4 (= x110 x66)) (x141 (= x28 x54)) (x17 (= x72 x155)) (x50 (= x94 x45)) (x67 (= x72 x137)) (x139 (= x159 x51)) (x65 (= x110 x45)) (x68 (= x72 x78)) (x24 (= x145 x45)) (x7 (= x51 x153)) (x107 (= x45 x59)) (x40 (= x51 x46)) (x113 (= x66 x156)) (x82 (= x45 x10)) (x74 (= x32 x72))) (or (and (and (or (not x34) x34) (and (and (and (or x12 (not x5)) (or (not x89) x100)) (or (not x14) x127)) (or (not x91) x71))) (and (and (and (and (and (or (not x6) x118) (and (or (not x123) x80) (or x33 (not x65)))) (or x9 (not x52))) (or x129 (not x129))) (and (and (or (not x15) x15) (and (or (not x49) x148) (and (or x64 (not x62)) (and (or (not x26) x93) (or x115 (not x24)))))) (and (and (or (not x120) x96) (and (or x39 (not x106)) (and (or x132 (not x25)) (or (not x116) x56)))) (or x82 (not x82))))) (and (and (or (not x41) x2) (and (or x79 (not x73)) (and (or (not x107) x19) (or (not x158) x23)))) (or x50 (not x50))))) (or (and (and (or (not x71) x91) (and (and (and (or (not x17) x18) (or x48 (not x29))) (or x76 (not x90))) (or x144 (not x144)))) (and (and (and (or x52 (not x9)) (and (or x20 (not x20)) (and (or x7 (not x27)) (and (or x104 (not x88)) (or (not x117) x60))))) (and (and (and (or (not x69) x69) (and (or (not x98) x119) (and (or x42 (not x128)) (or x131 (not x86))))) (or x49 (not x148))) (and (and (and (or x121 (not x150)) (and (or (not x67) x154) (or (not x68) x84))) (or (not x74) x74)) (or (not x96) x120)))) (and (and (or (not x16) x16) (and (or x103 (not x85)) (and (or (not x111) x35) (or x109 (not x140))))) (or x41 (not x2))))) (or (and (and (or (not x127) x14) (and (or (not x76) x90) (and (and (or (not x1) x113) (or x136 (not x122))) (or (not x125) x125)))) (and (and (and (or x85 (not x103)) (and (and (or (not x157) x3) (or x126 (not x38))) (or (not x139) x139))) (or x73 (not x79))) (and (and (and (and (or (not x119) x98) (and (or x58 (not x58)) (and (or x70 (not x22)) (or x114 (not x101))))) (or (not x64) x62)) (and (or x106 (not x39)) (and (or x150 (not x121)) (and (or (not x97) x97) (and (or (not x55) x92) (or x95 (not x57))))))) (and (and (or (not x7) x27) (and (and (or x75 (not x40)) (or x105 (not x8))) (or x30 (not x30)))) (or x6 (not x118)))))) (or (and (and (and (and (and (or x116 (not x56)) (and (or x68 (not x84)) (and (and (or (not x142) x142) (or x108 (not x146))) (or (not x95) x57)))) (and (and (and (or x22 (not x70)) (and (or x61 (not x37)) (or x47 (not x47)))) (or x128 (not x42))) (or x24 (not x115)))) (and (and (or x117 (not x60)) (and (or x8 (not x105)) (and (or (not x152) x135) (or (not x4) x4)))) (or (not x33) x65))) (and (or (not x23) x158) (and (and (and (or (not x36) x141) (or (not x147) x147)) (or (not x3) x157)) (or (not x35) x111)))) (and (or x5 (not x12)) (and (or x17 (not x18)) (and (and (or x21 (not x21)) (or (not x138) x134)) (or x1 (not x113)))))) (and (and (and (or (not x19) x107) (and (and (and (or (not x141) x36) (or x13 (not x13))) (or (not x126) x38)) (or (not x109) x140))) (and (and (or x123 (not x80)) (and (and (and (or (not x133) x133) (or (not x135) x152)) (or (not x75) x40)) (or x88 (not x104)))) (and (and (and (and (and (or (not x149) x149) (or x37 (not x61))) (or (not x114) x101)) (or (not x131) x86)) (or (not x93) x26)) (and (and (or x67 (not x154)) (and (and (or x53 (not x53)) (or x146 (not x108))) (or (not x92) x55))) (or x25 (not x132)))))) (and (and (or x29 (not x48)) (and (and (or (not x43) x43) (or (not x134) x138)) (or x122 (not x136)))) (or (not x100) x89))))))))))
(check-sat)
(exit)
